p cnf 22 49
a 10 7 0
e 1 2 3 4 5 6 8 9 11 12 13 14 15 16 17 18 19 20 21 22 0
2 3 -4 0
-2 -3 -4 0
2 -3 4 0
-2 3 4 0
-5 1 0
-5 4 0
-1 -4 5 0
-6 -2 0
-6 -4 0
2 4 6 0
-7 -5 0
-7 -6 0
5 6 7 0
9 -1 0
9 8 0
1 -8 -9 0
-11 10 0
-11 -10 0
-1 -12 -13 0
1 12 -13 0
-1 12 13 0
1 -12 13 0
-14 11 0
-14 13 0
-11 -13 14 0
15 -9 0
15 -14 0
9 14 -15 0
-7 -15 -16 0
7 15 -16 0
-7 15 16 0
7 -15 16 0
18 -8 0
18 -17 0
8 17 -18 0
20 19 0
20 11 0
-19 -11 -20 0
21 18 0
21 -20 0
-18 20 -21 0
22 16 0
22 -21 0
-16 21 -22 0
3 6 -18 12 -8 13 0
-1 12 -8 5 7 10 22 0
-12 6 -17 0
-18 7 13 19 6 17 0
22 0
